seq_detector_witness/model/design_smt2.smt2
; SMT-LIBv2 description generated by Yosys 0.26 (git sha1 7e588664e, clang 10.0.0-4ubuntu1 -fPIC -Os)
; yosys-smt2-module seq_detector
(declare-sort |seq_detector_s| 0)
(declare-fun |seq_detector_is| (|seq_detector_s|) Bool)
; yosys-smt2-anyinit seq_detector#0 5 seq_detector.sv:13
; yosys-smt2-witness {"offset": 0, "path": ["\\_witness_", "\\anyinit_verific_state_reg_seq_detector_sv_13_54"], "smtname": 0, "smtoffset": 0, "type": "init", "width": 5}
(declare-fun |seq_detector#0| (|seq_detector_s|) (_ BitVec 5)) ; \_witness_.anyinit_verific_state_reg_seq_detector_sv_13_54
(declare-fun |seq_detector#1| (|seq_detector_s|) (_ BitVec 1)) ; \reset
(define-fun |seq_detector#2| ((state |seq_detector_s|)) (_ BitVec 5) (ite (= ((_ extract 0 0) (|seq_detector#1| state)) #b1) #b00001 (|seq_detector#0| state))) ; \state
; yosys-smt2-wire state 5
(define-fun |seq_detector_n state| ((state |seq_detector_s|)) (_ BitVec 5) (|seq_detector#2| state))
(declare-fun |seq_detector#3| (|seq_detector_s|) Bool) ; \seq_in
; yosys-smt2-input seq_in 1
; yosys-smt2-wire seq_in 1
; yosys-smt2-witness {"offset": 0, "path": ["\\seq_in"], "smtname": "seq_in", "smtoffset": 0, "type": "input", "width": 1}
(define-fun |seq_detector_n seq_in| ((state |seq_detector_s|)) Bool (|seq_detector#3| state))
; yosys-smt2-input reset 1
; yosys-smt2-wire reset 1
; yosys-smt2-witness {"offset": 0, "path": ["\\reset"], "smtname": "reset", "smtoffset": 0, "type": "input", "width": 1}
(define-fun |seq_detector_n reset| ((state |seq_detector_s|)) Bool (= ((_ extract 0 0) (|seq_detector#1| state)) #b1))
(define-fun |seq_detector#4| ((state |seq_detector_s|)) (_ BitVec 1) (bvnot (ite (|seq_detector#3| state) #b1 #b0))) ; $auto$wreduce.cc:455:run$267 [2]
(define-fun |seq_detector#5| ((state |seq_detector_s|)) Bool (= (|seq_detector#2| state) #b00001)) ; $verific$n51$3
(define-fun |seq_detector#6| ((state |seq_detector_s|)) Bool (= (|seq_detector#2| state) #b00010)) ; $verific$n52$4
(define-fun |seq_detector#7| ((state |seq_detector_s|)) Bool (= (|seq_detector#2| state) #b00100)) ; $verific$n53$5
(define-fun |seq_detector#8| ((state |seq_detector_s|)) Bool (= (|seq_detector#2| state) #b01000)) ; $verific$n54$6
(define-fun |seq_detector#9| ((state |seq_detector_s|)) Bool (= (|seq_detector#2| state) #b10000)) ; $verific$n55$7
(define-fun |seq_detector#10| ((state |seq_detector_s|)) Bool (or  (|seq_detector#5| state) (|seq_detector#6| state) (|seq_detector#7| state) (|seq_detector#8| state) (|seq_detector#9| state))) ; $auto$rtlil.cc:2403:ReduceOr$63
(define-fun |seq_detector#11| ((state |seq_detector_s|)) (_ BitVec 1) (bvnot (ite (|seq_detector#10| state) #b1 #b0))) ; $verific$n56$8
(define-fun |seq_detector#12| ((state |seq_detector_s|)) Bool (or  (|seq_detector#6| state) (|seq_detector#9| state))) ; $auto$opt_reduce.cc:134:opt_pmux$266
(define-fun |seq_detector#13| ((state |seq_detector_s|)) (_ BitVec 5) (ite (|seq_detector#5| state) (concat #b000 (concat (ite (|seq_detector#3| state) #b1 #b0) (|seq_detector#4| state))) (ite (|seq_detector#7| state) (concat #b0 (concat (ite (|seq_detector#3| state) #b1 #b0) (concat #b00 (|seq_detector#4| state)))) (ite (|seq_detector#8| state) (concat (ite (|seq_detector#3| state) #b1 #b0) (concat #b0 (concat (|seq_detector#4| state) #b00))) (ite (|seq_detector#12| state) (concat #b00 (concat (|seq_detector#4| state) (concat (ite (|seq_detector#3| state) #b1 #b0) #b0))) (ite (= ((_ extract 0 0) (|seq_detector#11| state)) #b1) (|seq_detector#2| state) #b00000)))))) ; \next
; yosys-smt2-wire next 5
(define-fun |seq_detector_n next| ((state |seq_detector_s|)) (_ BitVec 5) (|seq_detector#13| state))
; yosys-smt2-anyinit seq_detector#14 1 seq_detector.sv:30
; yosys-smt2-witness {"offset": 0, "path": ["\\_witness_", "\\anyinit_verific_detect_out_reg_seq_detector_sv_30_67"], "smtname": 14, "smtoffset": 0, "type": "init", "width": 1}
(declare-fun |seq_detector#14| (|seq_detector_s|) (_ BitVec 1)) ; \_witness_.anyinit_verific_detect_out_reg_seq_detector_sv_30_67
(define-fun |seq_detector#15| ((state |seq_detector_s|)) (_ BitVec 1) (ite (= ((_ extract 0 0) (|seq_detector#1| state)) #b1) #b0 (|seq_detector#14| state))) ; \detect_out
; yosys-smt2-output detect_out 1
; yosys-smt2-wire detect_out 1
(define-fun |seq_detector_n detect_out| ((state |seq_detector_s|)) Bool (= ((_ extract 0 0) (|seq_detector#15| state)) #b1))
(declare-fun |seq_detector#16| (|seq_detector_s|) Bool) ; \clk
; yosys-smt2-input clk 1
; yosys-smt2-wire clk 1
; yosys-smt2-clock clk posedge
; yosys-smt2-witness {"offset": 0, "path": ["\\clk"], "smtname": "clk", "smtoffset": 0, "type": "posedge", "width": 1}
; yosys-smt2-witness {"offset": 0, "path": ["\\clk"], "smtname": "clk", "smtoffset": 0, "type": "input", "width": 1}
(define-fun |seq_detector_n clk| ((state |seq_detector_s|)) Bool (|seq_detector#16| state))
; yosys-smt2-register _witness_.anyinit_verific_state_reg_seq_detector_sv_13_54 5
; yosys-smt2-wire _witness_.anyinit_verific_state_reg_seq_detector_sv_13_54 5
(define-fun |seq_detector_n _witness_.anyinit_verific_state_reg_seq_detector_sv_13_54| ((state |seq_detector_s|)) (_ BitVec 5) (|seq_detector#0| state))
; yosys-smt2-register _witness_.anyinit_verific_detect_out_reg_seq_detector_sv_30_67 1
; yosys-smt2-wire _witness_.anyinit_verific_detect_out_reg_seq_detector_sv_30_67 1
(define-fun |seq_detector_n _witness_.anyinit_verific_detect_out_reg_seq_detector_sv_30_67| ((state |seq_detector_s|)) Bool (= ((_ extract 0 0) (|seq_detector#14| state)) #b1))
; yosys-smt2-witness {"offset": 0, "path": ["$auto$async2sync.cc:171:execute$300"], "smtname": 17, "smtoffset": 0, "type": "reg", "width": 1}
(declare-fun |seq_detector#17| (|seq_detector_s|) (_ BitVec 1)) ; $auto$async2sync.cc:171:execute$300
; yosys-smt2-register $auto$async2sync.cc:171:execute$300 1
(define-fun |seq_detector_n $auto$async2sync.cc:171:execute$300| ((state |seq_detector_s|)) Bool (= ((_ extract 0 0) (|seq_detector#17| state)) #b1))
; yosys-smt2-witness {"offset": 0, "path": ["$auto$async2sync.cc:171:execute$298"], "smtname": 18, "smtoffset": 0, "type": "reg", "width": 1}
(declare-fun |seq_detector#18| (|seq_detector_s|) (_ BitVec 1)) ; $auto$async2sync.cc:171:execute$298
; yosys-smt2-register $auto$async2sync.cc:171:execute$298 1
(define-fun |seq_detector_n $auto$async2sync.cc:171:execute$298| ((state |seq_detector_s|)) Bool (= ((_ extract 0 0) (|seq_detector#18| state)) #b1))
; yosys-smt2-witness {"offset": 0, "path": ["$auto$async2sync.cc:171:execute$296"], "smtname": 19, "smtoffset": 0, "type": "reg", "width": 1}
(declare-fun |seq_detector#19| (|seq_detector_s|) (_ BitVec 1)) ; $auto$async2sync.cc:171:execute$296
; yosys-smt2-register $auto$async2sync.cc:171:execute$296 1
(define-fun |seq_detector_n $auto$async2sync.cc:171:execute$296| ((state |seq_detector_s|)) Bool (= ((_ extract 0 0) (|seq_detector#19| state)) #b1))
; yosys-smt2-witness {"offset": 0, "path": ["$auto$async2sync.cc:171:execute$294"], "smtname": 20, "smtoffset": 0, "type": "reg", "width": 1}
(declare-fun |seq_detector#20| (|seq_detector_s|) (_ BitVec 1)) ; $auto$async2sync.cc:171:execute$294
; yosys-smt2-register $auto$async2sync.cc:171:execute$294 1
(define-fun |seq_detector_n $auto$async2sync.cc:171:execute$294| ((state |seq_detector_s|)) Bool (= ((_ extract 0 0) (|seq_detector#20| state)) #b1))
; yosys-smt2-witness {"offset": 0, "path": ["$auto$async2sync.cc:171:execute$292"], "smtname": 21, "smtoffset": 0, "type": "reg", "width": 1}
(declare-fun |seq_detector#21| (|seq_detector_s|) (_ BitVec 1)) ; $auto$async2sync.cc:171:execute$292
; yosys-smt2-register $auto$async2sync.cc:171:execute$292 1
(define-fun |seq_detector_n $auto$async2sync.cc:171:execute$292| ((state |seq_detector_s|)) Bool (= ((_ extract 0 0) (|seq_detector#21| state)) #b1))
; yosys-smt2-witness {"offset": 0, "path": ["$auto$async2sync.cc:171:execute$290"], "smtname": 22, "smtoffset": 0, "type": "reg", "width": 1}
(declare-fun |seq_detector#22| (|seq_detector_s|) (_ BitVec 1)) ; $auto$async2sync.cc:171:execute$290
; yosys-smt2-register $auto$async2sync.cc:171:execute$290 1
(define-fun |seq_detector_n $auto$async2sync.cc:171:execute$290| ((state |seq_detector_s|)) Bool (= ((_ extract 0 0) (|seq_detector#22| state)) #b1))
; yosys-smt2-witness {"offset": 0, "path": ["$auto$async2sync.cc:171:execute$288"], "smtname": 23, "smtoffset": 0, "type": "reg", "width": 1}
(declare-fun |seq_detector#23| (|seq_detector_s|) (_ BitVec 1)) ; $auto$async2sync.cc:171:execute$288
; yosys-smt2-register $auto$async2sync.cc:171:execute$288 1
(define-fun |seq_detector_n $auto$async2sync.cc:171:execute$288| ((state |seq_detector_s|)) Bool (= ((_ extract 0 0) (|seq_detector#23| state)) #b1))
; yosys-smt2-witness {"offset": 0, "path": ["$auto$async2sync.cc:171:execute$286"], "smtname": 24, "smtoffset": 0, "type": "reg", "width": 1}
(declare-fun |seq_detector#24| (|seq_detector_s|) (_ BitVec 1)) ; $auto$async2sync.cc:171:execute$286
; yosys-smt2-register $auto$async2sync.cc:171:execute$286 1
(define-fun |seq_detector_n $auto$async2sync.cc:171:execute$286| ((state |seq_detector_s|)) Bool (= ((_ extract 0 0) (|seq_detector#24| state)) #b1))
; yosys-smt2-witness {"offset": 0, "path": ["$auto$async2sync.cc:171:execute$284"], "smtname": 25, "smtoffset": 0, "type": "reg", "width": 1}
(declare-fun |seq_detector#25| (|seq_detector_s|) (_ BitVec 1)) ; $auto$async2sync.cc:171:execute$284
; yosys-smt2-register $auto$async2sync.cc:171:execute$284 1
(define-fun |seq_detector_n $auto$async2sync.cc:171:execute$284| ((state |seq_detector_s|)) Bool (= ((_ extract 0 0) (|seq_detector#25| state)) #b1))
; yosys-smt2-witness {"offset": 0, "path": ["$auto$async2sync.cc:171:execute$282"], "smtname": 26, "smtoffset": 0, "type": "reg", "width": 1}
(declare-fun |seq_detector#26| (|seq_detector_s|) (_ BitVec 1)) ; $auto$async2sync.cc:171:execute$282
; yosys-smt2-register $auto$async2sync.cc:171:execute$282 1
(define-fun |seq_detector_n $auto$async2sync.cc:171:execute$282| ((state |seq_detector_s|)) Bool (= ((_ extract 0 0) (|seq_detector#26| state)) #b1))
; yosys-smt2-witness {"offset": 0, "path": ["$auto$async2sync.cc:171:execute$280"], "smtname": 27, "smtoffset": 0, "type": "reg", "width": 1}
(declare-fun |seq_detector#27| (|seq_detector_s|) (_ BitVec 1)) ; $auto$async2sync.cc:171:execute$280
; yosys-smt2-register $auto$async2sync.cc:171:execute$280 1
(define-fun |seq_detector_n $auto$async2sync.cc:171:execute$280| ((state |seq_detector_s|)) Bool (= ((_ extract 0 0) (|seq_detector#27| state)) #b1))
; yosys-smt2-witness {"offset": 0, "path": ["$auto$async2sync.cc:171:execute$278"], "smtname": 28, "smtoffset": 0, "type": "reg", "width": 1}
(declare-fun |seq_detector#28| (|seq_detector_s|) (_ BitVec 1)) ; $auto$async2sync.cc:171:execute$278
; yosys-smt2-register $auto$async2sync.cc:171:execute$278 1
(define-fun |seq_detector_n $auto$async2sync.cc:171:execute$278| ((state |seq_detector_s|)) Bool (= ((_ extract 0 0) (|seq_detector#28| state)) #b1))
; yosys-smt2-witness {"offset": 0, "path": ["$auto$async2sync.cc:171:execute$276"], "smtname": 29, "smtoffset": 0, "type": "reg", "width": 1}
(declare-fun |seq_detector#29| (|seq_detector_s|) (_ BitVec 1)) ; $auto$async2sync.cc:171:execute$276
; yosys-smt2-register $auto$async2sync.cc:171:execute$276 1
(define-fun |seq_detector_n $auto$async2sync.cc:171:execute$276| ((state |seq_detector_s|)) Bool (= ((_ extract 0 0) (|seq_detector#29| state)) #b1))
(define-fun |seq_detector#30| ((state |seq_detector_s|)) (_ BitVec 1) (bvnot (ite (|seq_detector#16| state) #b1 #b0))) ; $auto$rtlil.cc:2399:Not$339
; yosys-smt2-assume 0 $auto$formalff.cc:758:execute$340
(define-fun |seq_detector_u 0| ((state |seq_detector_s|)) Bool (or (= ((_ extract 0 0) (|seq_detector#30| state)) #b1) (not true))) ; $auto$formalff.cc:758:execute$340
(define-fun |seq_detector#31| ((state |seq_detector_s|)) (_ BitVec 1) (ite (= ((_ extract 0 0) (|seq_detector#1| state)) #b1) #b0 (|seq_detector#20| state))) ; $auto$verificsva.cc:1811:import$261
(define-fun |seq_detector#32| ((state |seq_detector_s|)) (_ BitVec 1) (ite (= ((_ extract 0 0) (|seq_detector#1| state)) #b1) #b0 (|seq_detector#24| state))) ; $auto$verificsva.cc:1812:import$262
; yosys-smt2-cover 0 SEQ_DETECT_WITNESS
(define-fun |seq_detector_c 0| ((state |seq_detector_s|)) Bool (and (= ((_ extract 0 0) (|seq_detector#31| state)) #b1) (= ((_ extract 0 0) (|seq_detector#32| state)) #b1))) ; SEQ_DETECT_WITNESS
(define-fun |seq_detector#33| ((state |seq_detector_s|)) (_ BitVec 1) (ite (= ((_ extract 0 0) (|seq_detector#1| state)) #b1) #b0 (|seq_detector#17| state))) ; $auto$verificsva.cc:1811:import$114
(define-fun |seq_detector#34| ((state |seq_detector_s|)) (_ BitVec 1) (ite (= ((_ extract 0 0) (|seq_detector#1| state)) #b1) #b0 (|seq_detector#21| state))) ; $auto$verificsva.cc:1812:import$115
; yosys-smt2-assert 0 ASSERT_ONE_HOT_STATE_ENCODING
(define-fun |seq_detector_a 0| ((state |seq_detector_s|)) Bool (or (= ((_ extract 0 0) (|seq_detector#33| state)) #b1) (not (= ((_ extract 0 0) (|seq_detector#34| state)) #b1)))) ; ASSERT_ONE_HOT_STATE_ENCODING
(define-fun |seq_detector#35| ((state |seq_detector_s|)) (_ BitVec 1) (ite (= ((_ extract 0 0) (|seq_detector#1| state)) #b1) #b0 (|seq_detector#18| state))) ; $auto$verificsva.cc:1811:import$184
(define-fun |seq_detector#36| ((state |seq_detector_s|)) (_ BitVec 1) (ite (= ((_ extract 0 0) (|seq_detector#1| state)) #b1) #b0 (|seq_detector#22| state))) ; $auto$verificsva.cc:1812:import$185
; yosys-smt2-assert 1 ASSERT_CHK_SEQ_DETECT
(define-fun |seq_detector_a 1| ((state |seq_detector_s|)) Bool (or (= ((_ extract 0 0) (|seq_detector#35| state)) #b1) (not (= ((_ extract 0 0) (|seq_detector#36| state)) #b1)))) ; ASSERT_CHK_SEQ_DETECT
(define-fun |seq_detector#37| ((state |seq_detector_s|)) (_ BitVec 1) (ite (= ((_ extract 0 0) (|seq_detector#1| state)) #b1) #b0 (|seq_detector#19| state))) ; $auto$verificsva.cc:1811:import$195
(define-fun |seq_detector#38| ((state |seq_detector_s|)) (_ BitVec 1) (ite (= ((_ extract 0 0) (|seq_detector#1| state)) #b1) #b0 (|seq_detector#23| state))) ; $auto$verificsva.cc:1812:import$196
; yosys-smt2-assume 1 $auto$verificsva.cc:1726:import$188 seq_detector.sv:34
(define-fun |seq_detector_u 1| ((state |seq_detector_s|)) Bool (or (= ((_ extract 0 0) (|seq_detector#37| state)) #b1) (not (= ((_ extract 0 0) (|seq_detector#38| state)) #b1)))) ; $auto$verificsva.cc:1726:import$188
(define-fun |seq_detector#39| ((state |seq_detector_s|)) (_ BitVec 1) (ite (= ((_ extract 0 0) (|seq_detector#1| state)) #b1) #b0 (|seq_detector#28| state))) ; $auto$verificsva.cc:293:getAccept$132
(define-fun |seq_detector#40| ((state |seq_detector_s|)) (_ BitVec 1) (ite (= ((_ extract 0 0) (|seq_detector#1| state)) #b1) #b0 (|seq_detector#39| state))) ; $auto$rtlil.cc:2496:Mux$327
(define-fun |seq_detector#41| ((state |seq_detector_s|)) (_ BitVec 1) (ite (= ((_ extract 0 0) (|seq_detector#1| state)) #b1) #b0 (|seq_detector#27| state))) ; $auto$verificsva.cc:293:getAccept$130
(define-fun |seq_detector#42| ((state |seq_detector_s|)) (_ BitVec 1) (bvand (|seq_detector#41| state) (ite (|seq_detector#3| state) #b1 #b0))) ; $auto$rtlil.cc:2429:And$142
(define-fun |seq_detector#43| ((state |seq_detector_s|)) (_ BitVec 1) (ite (= ((_ extract 0 0) (|seq_detector#1| state)) #b1) #b0 (|seq_detector#42| state))) ; $auto$rtlil.cc:2496:Mux$325
(define-fun |seq_detector#44| ((state |seq_detector_s|)) (_ BitVec 1) (ite (= ((_ extract 0 0) (|seq_detector#1| state)) #b1) #b0 (|seq_detector#26| state))) ; $auto$verificsva.cc:293:getAccept$127
(define-fun |seq_detector#45| ((state |seq_detector_s|)) (_ BitVec 1) (bvand (|seq_detector#44| state) (ite (|seq_detector#3| state) #b1 #b0))) ; $auto$rtlil.cc:2429:And$152
(define-fun |seq_detector#46| ((state |seq_detector_s|)) (_ BitVec 1) (ite (= ((_ extract 0 0) (|seq_detector#1| state)) #b1) #b0 (|seq_detector#45| state))) ; $auto$rtlil.cc:2496:Mux$323
(define-fun |seq_detector#47| ((state |seq_detector_s|)) (_ BitVec 1) (ite (= ((_ extract 0 0) (|seq_detector#1| state)) #b1) #b0 (|seq_detector#25| state))) ; $auto$verificsva.cc:293:getAccept$125
(define-fun |seq_detector#48| ((state |seq_detector_s|)) (_ BitVec 1) (bvand (|seq_detector#47| state) (|seq_detector#4| state))) ; $auto$rtlil.cc:2429:And$136
(define-fun |seq_detector#49| ((state |seq_detector_s|)) (_ BitVec 1) (ite (= ((_ extract 0 0) (|seq_detector#1| state)) #b1) #b0 (|seq_detector#48| state))) ; $auto$rtlil.cc:2496:Mux$321
(define-fun |seq_detector#50| ((state |seq_detector_s|)) (_ BitVec 1) (ite (= ((_ extract 0 0) (|seq_detector#1| state)) #b1) #b0 (ite (|seq_detector#3| state) #b1 #b0))) ; $auto$rtlil.cc:2496:Mux$319
(define-fun |seq_detector#51| ((state |seq_detector_s|)) (_ BitVec 1) (ite (= ((_ extract 0 0) (|seq_detector#1| state)) #b1) #b0 (|seq_detector#29| state))) ; $auto$verificsva.cc:293:getAccept$214
(define-fun |seq_detector#52| ((state |seq_detector_s|)) (_ BitVec 1) (bvand (|seq_detector#51| state) (|seq_detector#15| state))) ; $auto$rtlil.cc:2429:And$229
(define-fun |seq_detector#53| ((state |seq_detector_s|)) (_ BitVec 1) (ite (= ((_ extract 0 0) (|seq_detector#1| state)) #b1) #b0 (|seq_detector#52| state))) ; $auto$rtlil.cc:2496:Mux$317
(define-fun |seq_detector#54| ((state |seq_detector_s|)) (_ BitVec 1) (bvnot (|seq_detector#1| state))) ; $verific$n69$11
(define-fun |seq_detector#55| ((state |seq_detector_s|)) Bool (|seq_detector_is| state)) ; $auto$rtlil.cc:3229:Initstate$71
(define-fun |seq_detector#56| ((state |seq_detector_s|)) (_ BitVec 1) (bvxor (|seq_detector#54| state) (ite (|seq_detector#55| state) #b1 #b0))) ; $auto$rtlil.cc:2399:Not$192
(define-fun |seq_detector#57| ((state |seq_detector_s|)) (_ BitVec 1) (bvnot (|seq_detector#56| state))) ; $auto$rtlil.cc:2399:Not$190
(define-fun |seq_detector#58| ((state |seq_detector_s|)) (_ BitVec 1) (ite (= ((_ extract 0 0) (|seq_detector#1| state)) #b1) #b0 (|seq_detector#57| state))) ; $auto$rtlil.cc:2496:Mux$315
(define-fun |seq_detector#59| ((state |seq_detector_s|)) Bool (= (concat (|seq_detector#51| state) (|seq_detector#15| state)) #b10)) ; $auto$rtlil.cc:2403:ReduceOr$179
(define-fun |seq_detector#60| ((state |seq_detector_s|)) (_ BitVec 1) (ite (= ((_ extract 0 0) (|seq_detector#1| state)) #b1) #b0 (ite (|seq_detector#59| state) #b1 #b0))) ; $auto$rtlil.cc:2496:Mux$313
(define-fun |seq_detector#61| ((state |seq_detector_s|)) (_ BitVec 1) (bvor ((_ extract 0 0) (|seq_detector#2| state)) ((_ extract 1 1) (|seq_detector#2| state)))) ; $verific$n83$24
(define-fun |seq_detector#62| ((state |seq_detector_s|)) (_ BitVec 1) (bvor ((_ extract 2 2) (|seq_detector#2| state)) ((_ extract 3 3) (|seq_detector#2| state)))) ; $verific$n85$26
(define-fun |seq_detector#63| ((state |seq_detector_s|)) (_ BitVec 1) (bvor (|seq_detector#61| state) (|seq_detector#62| state))) ; $verific$n87$28
(define-fun |seq_detector#64| ((state |seq_detector_s|)) (_ BitVec 1) (bvor (|seq_detector#63| state) ((_ extract 4 4) (|seq_detector#2| state)))) ; $verific$n91$32
(define-fun |seq_detector#65| ((state |seq_detector_s|)) (_ BitVec 1) (bvand ((_ extract 0 0) (|seq_detector#2| state)) ((_ extract 1 1) (|seq_detector#2| state)))) ; $verific$n84$25
(define-fun |seq_detector#66| ((state |seq_detector_s|)) (_ BitVec 1) (bvand ((_ extract 2 2) (|seq_detector#2| state)) ((_ extract 3 3) (|seq_detector#2| state)))) ; $verific$n86$27
(define-fun |seq_detector#67| ((state |seq_detector_s|)) (_ BitVec 1) (bvor (|seq_detector#65| state) (|seq_detector#66| state))) ; $verific$n88$29
(define-fun |seq_detector#68| ((state |seq_detector_s|)) (_ BitVec 1) (bvand (|seq_detector#61| state) (|seq_detector#62| state))) ; $verific$n89$30
(define-fun |seq_detector#69| ((state |seq_detector_s|)) (_ BitVec 1) (bvor (|seq_detector#67| state) (|seq_detector#68| state))) ; $verific$n90$31
(define-fun |seq_detector#70| ((state |seq_detector_s|)) (_ BitVec 1) (bvand (|seq_detector#63| state) ((_ extract 4 4) (|seq_detector#2| state)))) ; $verific$n92$33
(define-fun |seq_detector#71| ((state |seq_detector_s|)) (_ BitVec 1) (bvor (|seq_detector#69| state) (|seq_detector#70| state))) ; $verific$n93$34
(define-fun |seq_detector#72| ((state |seq_detector_s|)) (_ BitVec 1) (bvnot (|seq_detector#71| state))) ; $verific$n94$35
(define-fun |seq_detector#73| ((state |seq_detector_s|)) (_ BitVec 1) (bvand (|seq_detector#64| state) (|seq_detector#72| state))) ; $auto$rtlil.cc:2399:Not$111
(define-fun |seq_detector#74| ((state |seq_detector_s|)) (_ BitVec 1) (bvnot (|seq_detector#73| state))) ; $auto$rtlil.cc:2399:Not$109
(define-fun |seq_detector#75| ((state |seq_detector_s|)) (_ BitVec 1) (ite (= ((_ extract 0 0) (|seq_detector#1| state)) #b1) #b0 (|seq_detector#74| state))) ; $auto$rtlil.cc:2496:Mux$311
(define-fun |seq_detector#76| ((state |seq_detector_s|)) (_ BitVec 1) (ite (= ((_ extract 0 0) (|seq_detector#1| state)) #b1) #b0 #b1)) ; $auto$rtlil.cc:2496:Mux$309
(define-fun |seq_detector#77| ((state |seq_detector_s|)) (_ BitVec 1) (ite (= ((_ extract 0 0) (|seq_detector#1| state)) #b1) #b0 (|seq_detector#56| state))) ; $auto$rtlil.cc:2496:Mux$307
(define-fun |seq_detector#78| ((state |seq_detector_s|)) (_ BitVec 1) (bvnot (ite (|seq_detector#59| state) #b1 #b0))) ; $auto$rtlil.cc:2399:Not$181
(define-fun |seq_detector#79| ((state |seq_detector_s|)) (_ BitVec 1) (ite (= ((_ extract 0 0) (|seq_detector#1| state)) #b1) #b0 (|seq_detector#78| state))) ; $auto$rtlil.cc:2496:Mux$305
(define-fun |seq_detector#80| ((state |seq_detector_s|)) (_ BitVec 1) (ite (= ((_ extract 0 0) (|seq_detector#1| state)) #b1) #b0 (|seq_detector#73| state))) ; $auto$rtlil.cc:2496:Mux$303
(define-fun |seq_detector#81| ((state |seq_detector_s|)) (_ BitVec 1) (ite (= ((_ extract 0 0) (|seq_detector#1| state)) #b1) #b0 (ite (|seq_detector#9| state) #b1 #b0))) ; $auto$async2sync.cc:138:execute$272
(define-fun |seq_detector#82| ((state |seq_detector_s|)) (_ BitVec 5) (ite (= ((_ extract 0 0) (|seq_detector#1| state)) #b1) #b00001 (|seq_detector#13| state))) ; $auto$async2sync.cc:138:execute$268
(define-fun |seq_detector_a| ((state |seq_detector_s|)) Bool (and
  (|seq_detector_a 0| state)
  (|seq_detector_a 1| state)
))
(define-fun |seq_detector_u| ((state |seq_detector_s|)) Bool (and
  (|seq_detector_u 0| state)
  (|seq_detector_u 1| state)
))
(define-fun |seq_detector_i| ((state |seq_detector_s|)) Bool (and
  (= (= ((_ extract 0 0) (|seq_detector#17| state)) #b1) false) ; $auto$async2sync.cc:171:execute$300
  (= (= ((_ extract 0 0) (|seq_detector#18| state)) #b1) false) ; $auto$async2sync.cc:171:execute$298
  (= (= ((_ extract 0 0) (|seq_detector#19| state)) #b1) false) ; $auto$async2sync.cc:171:execute$296
  (= (= ((_ extract 0 0) (|seq_detector#20| state)) #b1) false) ; $auto$async2sync.cc:171:execute$294
  (= (= ((_ extract 0 0) (|seq_detector#21| state)) #b1) false) ; $auto$async2sync.cc:171:execute$292
  (= (= ((_ extract 0 0) (|seq_detector#22| state)) #b1) false) ; $auto$async2sync.cc:171:execute$290
  (= (= ((_ extract 0 0) (|seq_detector#23| state)) #b1) false) ; $auto$async2sync.cc:171:execute$288
  (= (= ((_ extract 0 0) (|seq_detector#24| state)) #b1) false) ; $auto$async2sync.cc:171:execute$286
  (= (= ((_ extract 0 0) (|seq_detector#25| state)) #b1) false) ; $auto$async2sync.cc:171:execute$284
  (= (= ((_ extract 0 0) (|seq_detector#26| state)) #b1) false) ; $auto$async2sync.cc:171:execute$282
  (= (= ((_ extract 0 0) (|seq_detector#27| state)) #b1) false) ; $auto$async2sync.cc:171:execute$280
  (= (= ((_ extract 0 0) (|seq_detector#28| state)) #b1) false) ; $auto$async2sync.cc:171:execute$278
  (= (= ((_ extract 0 0) (|seq_detector#29| state)) #b1) false) ; $auto$async2sync.cc:171:execute$276
))
(define-fun |seq_detector_h| ((state |seq_detector_s|)) Bool true)
(define-fun |seq_detector_t| ((state |seq_detector_s|) (next_state |seq_detector_s|)) Bool (and
  (= (|seq_detector#40| state) (|seq_detector#29| next_state)) ; $auto$verificsva.cc:362:getAccept$256 $auto$async2sync.cc:171:execute$276
  (= (|seq_detector#43| state) (|seq_detector#28| next_state)) ; $auto$verificsva.cc:362:getAccept$166 $auto$async2sync.cc:171:execute$278
  (= (|seq_detector#46| state) (|seq_detector#27| next_state)) ; $auto$verificsva.cc:362:getAccept$165 $auto$async2sync.cc:171:execute$280
  (= (|seq_detector#49| state) (|seq_detector#26| next_state)) ; $auto$verificsva.cc:362:getAccept$164 $auto$async2sync.cc:171:execute$282
  (= (|seq_detector#50| state) (|seq_detector#25| next_state)) ; $auto$verificsva.cc:362:getAccept$163 $auto$async2sync.cc:171:execute$284
  (= (|seq_detector#53| state) (|seq_detector#24| next_state)) ; $auto$verificsva.cc:1814:import$264 $auto$async2sync.cc:171:execute$286
  (= (|seq_detector#58| state) (|seq_detector#23| next_state)) ; $auto$verificsva.cc:1814:import$198 $auto$async2sync.cc:171:execute$288
  (= (|seq_detector#60| state) (|seq_detector#22| next_state)) ; $auto$verificsva.cc:1814:import$187 $auto$async2sync.cc:171:execute$290
  (= (|seq_detector#75| state) (|seq_detector#21| next_state)) ; $auto$verificsva.cc:1814:import$117 $auto$async2sync.cc:171:execute$292
  (= (|seq_detector#76| state) (|seq_detector#20| next_state)) ; $auto$verificsva.cc:1813:import$263 $auto$async2sync.cc:171:execute$294
  (= (|seq_detector#77| state) (|seq_detector#19| next_state)) ; $auto$verificsva.cc:1813:import$197 $auto$async2sync.cc:171:execute$296
  (= (|seq_detector#79| state) (|seq_detector#18| next_state)) ; $auto$verificsva.cc:1813:import$186 $auto$async2sync.cc:171:execute$298
  (= (|seq_detector#80| state) (|seq_detector#17| next_state)) ; $auto$verificsva.cc:1813:import$116 $auto$async2sync.cc:171:execute$300
  (= (|seq_detector#81| state) (|seq_detector#14| next_state)) ; $verific$detect_out_reg$seq_detector.sv:30$67 \_witness_.anyinit_verific_detect_out_reg_seq_detector_sv_30_67
  (= (|seq_detector#82| state) (|seq_detector#0| next_state)) ; $verific$state_reg$seq_detector.sv:13$54 \_witness_.anyinit_verific_state_reg_seq_detector_sv_13_54
)) ; end of module seq_detector
; yosys-smt2-topmod seq_detector
; end of yosys output
